10 45
1 2 20
1 3 3
1 4 17
1 5 13
1 6 27
1 7 3
1 8 0
1 9 20
1 10 3
2 3 15
2 4 10
2 5 24
2 6 23
2 7 23
2 8 22
2 9 25
2 10 3
3 4 7
3 5 3
3 6 3
3 7 6
3 8 13
3 9 21
3 10 4
4 5 21
4 6 25
4 7 1
4 8 14
4 9 24
4 10 7
5 6 4
5 7 29
5 8 21
5 9 19
5 10 0
6 7 10
6 8 4
6 9 9
6 10 18
7 8 8
7 9 29
7 10 29
8 9 8
8 10 10
9 10 22
